p cnf 1 81
1 0
1 0
1 0
1 0
-1 0
1 0
1 0
1 0
-1 0
-1 0
1 0
1 0
-1 0
1 0
-1 0
1 0
1 0
-1 0
-1 0
-1 0
-1 0
1 0
1 0
1 0
1 0
-1 0
1 0
-1 0
-1 0
1 0
-1 0
1 0
-1 0
1 0
1 0
-1 0
1 0
-1 0
1 0
-1 0
1 0
1 0
-1 0
1 0
1 0
1 0
1 0
-1 0
-1 0
1 0
1 0
-1 0
1 0
-1 0
-1 0
-1 0
1 0
-1 0
1 0
-1 0
-1 0
1 0
1 0
1 0
-1 0
1 0
-1 0
1 0
1 0
-1 0
1 0
1 0
1 0
-1 0
-1 0
-1 0
1 0
1 0
-1 0
1 0
1 0
